(set-info :status unsat) ; swine result
(set-logic ALL)
(declare-fun it144 () Int)
(declare-fun i1 () Int)
(declare-fun it10 () Int)
(declare-fun it2141 () Int)
(declare-fun it2142 () Int)
(declare-fun it2143 () Int)
(declare-fun it2144 () Int)
(declare-fun it2145 () Int)
(declare-fun it6 () Int)
(declare-fun it2146 () Int)
(declare-fun it192 () Int)
(declare-fun it15 () Int)
(declare-fun it2150 () Int)
(declare-fun it2151 () Int)
(declare-fun it2152 () Int)
(declare-fun it2153 () Int)
(declare-fun it2154 () Int)
(declare-fun it11 () Int)
(declare-fun it2155 () Int)
(declare-fun it20 () Int)
(declare-fun it2168 () Int)
(declare-fun it2169 () Int)
(declare-fun it2170 () Int)
(declare-fun it2171 () Int)
(declare-fun it2172 () Int)
(declare-fun it17 () Int)
(declare-fun it2173 () Int)
(declare-fun it16 () Int)
(declare-fun it25 () Int)
(declare-fun it223 () Int)
(declare-fun it2177 () Int)
(declare-fun it2178 () Int)
(declare-fun it2179 () Int)
(declare-fun it2180 () Int)
(declare-fun it22 () Int)
(declare-fun it2181 () Int)
(declare-fun it2182 () Int)
(declare-fun it21 () Int)
(declare-fun it30 () Int)
(declare-fun it2196 () Int)
(declare-fun it2197 () Int)
(declare-fun it2198 () Int)
(declare-fun it2199 () Int)
(declare-fun it2200 () Int)
(declare-fun it27 () Int)
(declare-fun it2201 () Int)
(declare-fun it26 () Int)
(declare-fun it255 () Int)
(declare-fun it35 () Int)
(declare-fun it2251 () Int)
(declare-fun it2252 () Int)
(declare-fun it2253 () Int)
(declare-fun it2254 () Int)
(declare-fun it2255 () Int)
(declare-fun it32 () Int)
(declare-fun it31 () Int)
(declare-fun it2256 () Int)
(declare-fun it49 () Int)
(declare-fun it50 () Int)
(declare-fun it47 () Int)
(declare-fun it2307 () Int)
(declare-fun it2308 () Int)
(declare-fun it2309 () Int)
(declare-fun it2310 () Int)
(declare-fun it2311 () Int)
(declare-fun it2312 () Int)
(declare-fun it90 () Int)
(declare-fun it2316 () Int)
(declare-fun it2317 () Int)
(declare-fun it2318 () Int)
(declare-fun it2319 () Int)
(declare-fun it2320 () Int)
(declare-fun it2321 () Int)
(declare-fun it375 () Int)
(declare-fun it732 () Int)
(declare-fun it127 () Int)
(declare-fun it996 () Int)
(declare-fun it995 () Int)
(declare-fun it2331 () Int)
(declare-fun it2332 () Int)
(declare-fun it2333 () Int)
(declare-fun it2334 () Int)
(declare-fun it2335 () Int)
(declare-fun it2336 () Int)
(declare-fun it2341 () Int)
(declare-fun it140 () Int)
(declare-fun it2340 () Int)
(declare-fun it2357 () Int)
(declare-fun it2358 () Int)
(declare-fun it2359 () Int)
(declare-fun it2360 () Int)
(declare-fun it2361 () Int)
(declare-fun it2362 () Int)
(declare-fun it109 () Int)
(declare-fun it110 () Int)
(declare-fun it107 () Int)
(declare-fun it2374 () Int)
(declare-fun it2375 () Int)
(declare-fun it2376 () Int)
(declare-fun it2377 () Int)
(declare-fun it2378 () Int)
(declare-fun it2379 () Int)
(declare-fun it1908 () Int)
(declare-fun it1872 () Int)
(declare-fun it1871 () Int)
(declare-fun it2363 () Int)
(declare-fun it2365 () Int)
(declare-fun it2337 () Int)
(declare-fun it102 () Int)
(assert (and (> it10 0) (= (+ i1 (- 13)) 0) (> (+ it144 1) 0)))
(assert (= (+ it2141 (- 2)) 0))
(assert (= (+ (* it10 (- 1)) it2142) 0))
(assert (= (+ it2143 (- 2)) 0))
(assert (= it2144 0))
(assert (= (+ it2145 (* it144 (- 1))) 0))
(assert (= (+ it2146 (* it6 (- 1))) 0))
(assert (and (> it15 0)
     (>= (+ it2142 (* it15 (- 1))) 0)
     (>= (+ it2141 (- 2)) 0)
     (>= (+ (* it2141 (- 1)) 2) 0)
     (> (+ it2145 (* it2144 (- 1))) 0)
     (> (+ (* it192 (- 1)) it2145 (* it2144 (- 1)) 1) 0)
     (>= (+ it192 (- 1)) 0)
     (> (+ it2145 1) 0)
     (> it2142 0)
     (> (+ it2143 (- 1)) 0)))
(assert (= (+ (* it2141 (- 1)) it2150) 0))
(assert (= (+ it2151 (* it15 (- 1))) 0))
(assert (= (+ (+ 0 it2152) (* (exp 2 it192) (+ 0 it2143) (+ 0 (- 1))))
   (+ 0 0)))
(assert (= (+ (* it192 (- 1)) it2153 (* it2144 (- 1))) 0))
(assert (= (+ it2154 (* it2145 (- 1))) 0))
(assert (= (+ it2155 (* it11 (- 1))) 0))
(assert (and (> it20 0)
     (>= (+ it2151 (* it20 (- 1))) 0)
     (> (+ it2152 1) 0)
     (= (+ it2150 (- 2)) 0)
     (> it2151 0)
     (<= (+ it2154 (* it2153 (- 1))) 0)))
(assert (= (+ it2168 (- 3)) 0))
(assert (= (+ (* it20 (- 1)) it2169) 0))
(assert (= it2170 0))
(assert (= (+ it2171 (* it2152 (- 1))) 0))
(assert (= (+ (* it17 (- 1)) it2172) 0))
(assert (= (+ (* it16 (- 1)) it2173) 0))
(assert (let ((a!1 (> (+ (+ (* it2170 (- 1)) it2171) (* it223 (- 1)) 1) 0)))
  (and (> it25 0)
       a!1
       (> it2169 0)
       (>= (+ it223 (- 1)) 0)
       (>= (+ it2169 (* it25 (- 1))) 0)
       (> (+ (* it2170 (- 1)) it2171) 0)
       (> (+ it2171 1) 0)
       (>= (+ it2168 (- 3)) 0)
       (> (+ it2170 1) 0)
       (>= (+ (* it2168 (- 1)) 3) 0))))
(assert (= (+ it2177 (* it2168 (- 1))) 0))
(assert (= (+ it2178 (* it25 (- 1))) 0))
(assert (= (+ (* it2170 (- 1)) it2179 (* it223 (- 1))) 0))
(assert (= (+ it2180 (* it2171 (- 1))) 0))
(assert (= (+ it2181 (* it22 (- 1))) 0))
(assert (= (+ (* it21 (- 1)) it2182) 0))
(assert (and (> it30 0)
     (= (+ it2177 (- 3)) 0)
     (> it2178 0)
     (<= (+ it2180 (* it2179 (- 1))) 0)
     (<= (+ it30 (* it2178 (- 1))) 0)
     (> it2180 0)))
(assert (= (+ it2196 (- 4)) 0))
(assert (= (+ (* it30 (- 1)) it2197) 0))
(assert (= it2198 0))
(assert (= (+ (* it2180 (- 1)) it2199) 0))
(assert (= (+ (* it27 (- 1)) it2200) 0))
(assert (= (+ (* it26 (- 1)) it2201) 0))
(assert (and (> it35 0)
     (> (+ (* it2198 (- 1)) it2199) 0)
     (> (+ it2199 (- 1)) 0)
     (> (+ (* it2198 (- 1)) (* it255 (- 1)) it2199 1) 0)
     (>= (+ it2197 (* it35 (- 1))) 0)
     (>= (+ it255 (- 1)) 0)
     (>= (+ it2196 (- 4)) 0)
     (> it2197 0)
     (>= (+ (* it2196 (- 1)) 4) 0)))
(assert (= (+ it2251 (* it2196 (- 1))) 0))
(assert (= (+ it2252 (* it35 (- 1))) 0))
(assert (= (+ (* it2198 (- 1)) (* it255 (- 1)) it2253) 0))
(assert (= (+ (* it2199 (- 1)) it2254) 0))
(assert (= (+ (* it32 (- 1)) it2255) 0))
(assert (= (+ it2256 (* it31 (- 1))) 0))
(assert (and (> it47 0)
     (> it49 0)
     (> it50 0)
     (<= (+ (* it2252 (- 1)) it47) 0)
     (> (+ it2254 (- 1)) 0)
     (<= (+ (* it2252 (- 1)) it50) 0)
     (= (+ it2251 (- 4)) 0)
     (<= (+ (* it2253 (- 1)) it2254) 0)
     (> it2252 0)
     (<= (+ (* it2252 (- 1)) it49) 0)))
(assert (= (+ it2307 (- 6)) 0))
(assert (= (+ it2308 (* it50 (- 1))) 0))
(assert (= (+ (* it49 (- 1)) it2309) 0))
(assert (= it2310 0))
(assert (= (+ it2311 (* it47 (- 1))) 0))
(assert (= (+ it2312 (* it2254 (- 1))) 0))
(assert (and (> it90 0)
     (= (+ it2307 (- 6)) 0)
     (> it2308 0)
     (<= (+ (* it2309 (- 1)) it90) 0)
     (> it2309 0)
     (<= (+ (* it2308 (- 1)) it90) 0)
     (> (+ (* it2310 (- 1)) it2312 (- 1)) 0)
     (> it2312 0)
     (<= (+ (* it2311 (- 1)) it90) 0)
     (> it2311 0)))
(assert (= (+ it2316 (- 10)) 0))
(assert (= (+ it2317 (* it90 (- 1))) 0))
(assert (= (+ (* it2310 (- 1)) it2318) 0))
(assert (= (+ it2319 (* it2310 (- 1))) 0))
(assert (= (+ (* it2310 (- 1)) it2320) 0))
(assert (= (+ it2321 (* it2312 (- 1))) 0))
(assert (let ((a!1 (+ (+ (* it2319 (- 1)) it127)
              (* it732 (+ it996 (- 1)) (- 1))
              (* (+ it996 (- 1)) it375 (- 1))))
      (a!2 (+ (+ (+ (* it2319 (- 1)) it127) (* it732 (- 1)))
              (* it732 (+ it996 (- 1)) (- 1))
              (* (+ it996 (- 1)) it375 (- 1))
              (* it375 (- 1))
              1))
      (a!3 (> (+ (+ (* it2319 (- 1)) it127) (* it375 (- 1))) 0))
      (a!5 (+ (+ (+ (* it2319 (- 1)) it127) (* it375 (- 1))) 1))
      (a!6 (+ (+ (+ (* it2319 (- 1)) it127) (* it732 (- 1))) (* it375 (- 1)) 1)))
(let ((a!4 (> (+ (+ a!1 (* it375 (- 1))) 1) 0)))
  (and (> (+ it127 1) 0)
       (> (+ it127 (- 1)) 0)
       (> (+ a!1 (* it375 (- 1))) 0)
       (> a!2 0)
       (>= (+ it996 (- 1)) 0)
       a!3
       (>= (+ (* it2319 (- 1)) it2320) 0)
       (> (+ (* it2319 (- 1)) it2321) 0)
       (> (+ it127 (* it2318 (- 1))) 0)
       (> (+ it2321 (* it2318 (- 1))) 0)
       (> (+ it2318 1) 0)
       a!4
       (>= (+ it2316 (- 10)) 0)
       (>= (+ (* it2316 (- 1)) 10) 0)
       (> a!5 0)
       (> (+ it2321 (- 1)) 0)
       (> it995 0)
       (>= (+ it732 (- 1)) 0)
       (>= (+ it995 (- 1)) 0)
       (>= (+ it375 (- 1)) 0)
       (> (+ (* it2319 (- 1)) it127) 0)
       (>= (+ it2319 (* it2320 (- 1))) 0)
       (>= (+ it2317 (* it995 (- 1))) 0)
       (> a!1 0)
       (>= (+ it2317 (- 1)) 0)
       (> it2317 0)
       (> a!6 0)))))
(assert (= (+ (* it2316 (- 1)) it2331) 0))
(assert (= (+ (* it995 (- 1)) it2332) 0))
(assert (= (+ it2333 (* it2318 (- 1))) 0))
(assert (= (+ (* it2319 (- 1)) (* it996 it732 (- 1)) it2334 (* it996 it375 (- 1))) 0))
(assert (= (+ (* it2319 (- 1))
      (* it732 (- 1))
      (* it732 (+ it996 (- 1)) (- 1))
      (* (+ it996 (- 1)) it375 (- 1))
      it2335
      (* it375 (- 1)))
   0))
(assert (= (+ (* it127 (- 1)) it2336) 0))
(assert (and (> it140 0)
     (>= (+ it2332 (- 1)) 0)
     (>= (+ (* it2331 (- 1)) 10) 0)
     (> (+ it2333 1) 0)
     (>= (+ it2340 (- 1)) 0)
     (>= (+ it2334 (* it2335 (- 1))) 0)
     (>= (+ (* it2334 (- 1)) it2335) 0)
     (>= (+ it2331 (- 10)) 0)
     (> (+ it2336 (- 1)) 0)
     (> (+ (* it2340 (- 1)) (* it2334 (- 1)) it2341 1) 0)
     (> it2332 0)
     (> (+ (* it2333 (- 1)) it2341) 0)
     (> (+ it2341 1) 0)
     (>= (+ (* it140 (- 1)) it2332) 0)
     (> (+ it2336 (* it2333 (- 1))) 0)
     (> (+ it2336 (* it2334 (- 1))) 0)
     (> (+ (* it2334 (- 1)) it2341) 0)
     (> (+ it2341 (- 1)) 0)))
(assert (= (+ (* it2331 (- 1)) it2357) 0))
(assert (= (+ (* it140 (- 1)) it2358) 0))
(assert (= (+ (* it2333 (- 1)) it2359) 0))
(assert (= (+ (* it2340 (- 1)) (* it2334 (- 1)) it2360) 0))
(assert (= (+ it2361 (* it2340 (- 1)) (* it2334 (- 1))) 0))
(assert (= (+ it2362 (* it2341 (- 1))) 0))
(assert (and (> it107 0)
     (> it110 0)
     (> it109 0)
     (<= (+ (* it2358 (- 1)) it107) 0)
     (= (+ (* it2361 (- 1)) it2360) 0)
     (<= (+ (* it2358 (- 1)) it110) 0)
     (> (+ it2362 (* it2360 (- 1))) 0)
     (> (+ it2359 1) 0)
     (> it2358 0)
     (= (+ it2357 (- 10)) 0)
     (> (+ it2362 (- 1)) 0)
     (<= (+ (* it2358 (- 1)) it109) 0)
     (> (+ (* it2359 (- 1)) it2362) 0)))
(assert (= (+ it2374 (- 6)) 0))
(assert (= (+ (* it110 (- 1)) it2375) 0))
(assert (= (+ it2376 (* it109 (- 1))) 0))
(assert (= (+ it2377 (* it2359 (- 1)) (- 1)) 0))
(assert (= (+ (* it107 (- 1)) it2378) 0))
(assert (= (+ (* it2362 (- 1)) it2379) 0))
(assert (let ((a!1 (>= (+ (+ (* it2377 (- 1)) (* it1872 (- 1))) it2365) 0))
      (a!2 (+ (+ (* it1871 (- 1)) (* it2377 (- 1))) (* it1872 (- 1)) it2365))
      (a!4 (+ (+ (+ (* it2377 (- 1)) (* it1872 (- 1))) it2365) (- 1)))
      (a!5 (+ (+ (* it2377 (- 1)) it2365) (* (+ it2337 (- 1)) it2363 (- 1))))
      (a!7 (>= (+ (+ (* it2377 (- 1)) it2365) (- 2)) 0))
      (a!8 (+ (+ (+ (* it2377 (- 1)) (* it1872 (- 1))) it2365)
              (* (+ it2337 (- 1)) it2363 (- 1))))
      (a!10 (+ (+ (+ (* it1871 (- 1)) (* it2377 (- 1))) it2365)
               (* it2363 (- 1))
               (- 1)))
      (a!11 (+ (+ (+ (* it2377 (- 1)) (* it1872 (- 1))) it2365)
               (* it1908 (- 1))))
      (a!12 (>= (+ (+ (* it2377 (- 1)) (* it1872 (- 1)))
                   (* it2337 it2363 (- 1))
                   it2365
                   (* it1871 it2337 (- 1))
                   (- 1))
                0))
      (a!13 (> (+ (+ (* it2377 (- 1)) (* it1872 (- 1))) it2365) 0))
      (a!15 (> (+ (+ (* it2377 (- 1)) it2379) (- 1)) 0))
      (a!16 (>= (+ (+ (* it2377 (- 1)) it2379) (- 2)) 0))
      (a!17 (+ (+ (+ (* it2377 (- 1)) it2365) (* it2363 (- 1))) (- 2)))
      (a!19 (+ (+ (+ (* it2377 (- 1)) it2365) (* it2363 (- 1))) (- 1)))
      (a!20 (+ (+ (+ (* it2377 (- 1)) (* it1872 (- 1))) it2365)
               (* it2363 (- 1))
               (- 1)))
      (a!21 (>= (+ (+ (* it2377 (- 1)) it2379) (- 1)) 0))
      (a!22 (+ (+ (+ (* it1871 (- 1)) (* it2377 (- 1))) it2365)
               (* (+ it2337 (- 1)) it2363 (- 1))
               (* it2363 (- 1))
               (* it1871 (+ it2337 (- 1)) (- 1))
               (- 1))))
(let ((a!3 (>= (+ a!2
                  (* (+ it2337 (- 1)) it2363 (- 1))
                  (* it2363 (- 1))
                  (* it1871 (+ it2337 (- 1)) (- 1)))
               0))
      (a!6 (+ a!5 (* it2363 (- 1)) (* it1871 (+ it2337 (- 1)) (- 1))))
      (a!9 (>= (+ a!8 (* it1871 (+ it2337 (- 1)) (- 1)) (- 1)) 0))
      (a!14 (>= (+ a!5 (* it1871 (+ it2337 (- 1)) (- 1)) (- 2)) 0))
      (a!18 (>= (+ a!8 (* it2363 (- 1)) (* it1871 (+ it2337 (- 1)) (- 1))) 0)))
  (and (> it102 0)
       (>= (+ it102 (- 1)) 0)
       a!1
       (>= (+ it2375 (* it102 (- 1))) 0)
       (> it2379 0)
       a!3
       (> (+ it2377 1) 0)
       (> a!4 0)
       (> it2375 0)
       (= (+ (* it2365 (- 1)) it2379) 0)
       (> (+ (* it2377 (- 1)) it2365) 0)
       (>= (+ (* it102 (- 1)) it2376) 0)
       (>= (+ a!6 (- 1)) 0)
       a!7
       (>= (+ it2337 (- 1)) 0)
       a!9
       (>= (+ it2378 (* it102 (- 1))) 0)
       (>= a!10 0)
       (> a!11 0)
       (>= (+ it2363 (- 1)) 0)
       (>= (+ it2378 (- 1)) 0)
       a!12
       (>= a!4 0)
       (>= (+ it2375 (- 1)) 0)
       (> (+ it2377 it1872 1) 0)
       a!13
       a!14
       (> (+ (* it2377 (- 1)) it2379) 0)
       (<= (+ (* it2365 (- 1)) it2379) 0)
       (> it2365 0)
       (> (+ it2365 1) 0)
       (> (+ it2379 1) 0)
       (> (+ it2379 (- 1)) 0)
       (>= (+ a!6 (- 2)) 0)
       a!15
       a!16
       (>= a!17 0)
       (>= (+ (* it2377 (- 1))
              (* it2337 it2363 (- 1))
              it2365
              (* it1871 it2337 (- 1))
              (- 2))
           0)
       a!18
       (<= (+ (* it102 (- 1)) it2376) 0)
       (>= (+ it2374 (- 6)) 0)
       (>= (+ it1908 (- 1)) 0)
       (>= (+ it1872 (- 1)) 0)
       (> it2378 0)
       (= 0 0)
       (>= a!19 0)
       (>= (+ it2376 (- 1)) 0)
       (>= a!20 0)
       (<= (+ (* it1872 (- 1)) (* it1908 (- 1))) 0)
       (<= (+ it1872 it1908) 0)
       (> (+ it2365 (- 1)) 0)
       (> it2376 0)
       a!21
       (>= a!22 0)
       (>= (+ a!2 (* it2363 (- 1))) 0)
       (>= (+ (* it2374 (- 1)) 6) 0)
       (>= (+ it1871 (- 1)) 0)
       (= (+ (* it1872 (- 1)) (* it1908 (- 1))) 0)))))
(check-sat)
